Optimal - objective value 2433.00000000
      3 x_0_4                  1                       0
     13 x_1_5                  1                      -4
     26 x_2_9                  1                     677
     27 x_3_0                  1                       0
     41 x_4_6                  1                       0
     52 x_5_8                  1                       0
     55 x_6_1                  1                       0
     65 x_7_2                  1                    -259
     79 x_8_7                  1                       0
     84 x_9_3                  1                       0
     90 u_1                    3                       0
     91 u_2                    7                       0
     92 u_3                    9                       0
     93 u_4                    1                       0
     94 u_5                    4                       0
     95 u_6                    2                       0
     96 u_7                    6                       0
     97 u_8                    5                       0
     98 u_9                    8                       0
